letting n =  10
letting blocks =  [[1, 4], [1, 6], [1, 7], [1, 10], [2, 1], [2, 2], [2, 3], [2, 5], [2, 7], [2, 8], [3, 4], [3, 8], [4, 1], [4, 2], [4, 3], [5, 8], [5, 10], [6, 3], [6, 4], [6, 5], [6, 7], [6, 9], [7, 1], [7, 5], [7, 6], [7, 9], [8, 1], [8, 2], [8, 6], [9, 2], [9, 4], [9, 6], [9, 8], [9, 10], [10, 2], [10, 4], [10, 5], [10, 6], [10, 8], [10, 9]]
